NAME : prv14
COMMENT : 13-city problem (Christofides/Eilon)
TYPE : TSP
DIMENSION : 14
EDGE_WEIGHT_TYPE : MAN_2D
NODE_COORD_SECTION
1 44 40
2 13 25
3 67 83
4 96 67
5 91 93
6 71 62
7 78 71
8 21 56
9 33 85
10 72 58
11 39 48
12 23 95
13 13 86
14 21 24
15 44 40
EOF
